
Gurobi 10.0.0 (win64) logging started Thu Jun 13 21:54:47 2024

Set parameter LogFile to value "C:\Users\ealvarezq\Documents\GitHub\Comillas\Models\JointResearch\05. Models\06.Benchmarking\L.Cont_Investments_per_hour\RTS24_mod2_ByStages_nc70/openStarNet_RTS24_mod2_ByStages_nc70.log"
Set parameter Method to value 2
Set parameter MIPFocus to value 1
Set parameter Presolve to value 2
Set parameter RINS to value 100
Set parameter MIPGap to value 0.01
Set parameter Threads to value 9
Set parameter TimeLimit to value 259200
Set parameter IterationLimit to value 760000000
Gurobi Optimizer version 10.0.0 build v10.0.0rc2 (win64)

CPU model: Intel(R) Core(TM) i7-8700 CPU @ 3.20GHz, instruction set [SSE2|AVX|AVX2]
Thread count: 6 physical cores, 12 logical processors, using up to 9 threads

Optimize a model with 24853 rows, 16736 columns and 67585 nonzeros
Model fingerprint: 0x0198cbe8
Variable types: 16715 continuous, 21 integer (21 binary)
Coefficient statistics:
  Matrix range     [1e-03, 2e+03]
  Objective range  [1e+00, 1e+00]
  Bounds range     [3e-05, 3e+00]
  RHS range        [3e-05, 3e+00]
Presolve removed 14788 rows and 8449 columns
Presolve time: 0.13s
Presolved: 10065 rows, 8287 columns, 36313 nonzeros
Variable types: 8266 continuous, 21 integer (21 binary)
Found heuristic solution: objective 96.1325324
Root relaxation presolve removed 1 rows and 1 columns
Root relaxation presolved: 10064 rows, 8286 columns, 36311 nonzeros

Root barrier log...

Ordering time: 0.00s

Barrier statistics:
 Dense cols : 21
 AA' NZ     : 6.745e+04
 Factor NZ  : 1.935e+05 (roughly 9 MB of memory)
 Factor Ops : 3.969e+06 (less than 1 second per iteration)
 Threads    : 9

                  Objective                Residual
Iter       Primal          Dual         Primal    Dual     Compl     Time
   0   2.64684239e+06 -2.94794775e+08  2.17e+01 1.09e+03  1.01e+05     0s
   1   8.80243846e+05 -1.55153147e+08  7.14e+00 1.23e-08  3.00e+04     0s
   2   6.33511437e+04 -1.21705487e+08  5.02e-01 6.84e-09  6.66e+03     0s
   3   2.11280149e+04 -1.42171735e+07  8.32e-02 5.08e-09  6.85e+02     0s
   4   1.39950037e+04 -8.08926415e+05  5.44e-03 2.67e-10  3.58e+01     0s
   5   8.25563067e+03 -1.26558909e+05  2.81e-13 4.40e-11  5.75e+00     0s
   6   3.05941938e+03 -3.10796127e+04  3.93e-13 9.79e-12  1.46e+00     0s
   7   9.47679565e+02 -7.46831745e+03  1.76e-13 3.07e-12  3.59e-01     0s
   8   2.74073966e+02 -1.48772266e+03  1.32e-13 2.84e-12  7.51e-02     0s
   9   1.68383301e+02 -2.01386065e+02  1.21e-13 2.46e-12  1.58e-02     0s
  10   9.59327888e+01 -4.69058996e+01  1.19e-13 5.35e-12  6.09e-03     0s
  11   7.47418120e+01 -1.08957230e-01  2.21e-13 3.23e-12  3.19e-03     0s
  12   6.35549286e+01  1.29618760e+01  5.68e-13 1.17e-12  2.16e-03     0s
  13   5.71740314e+01  3.66468936e+01  5.64e-13 1.77e-12  8.75e-04     0s
  14   5.26350584e+01  3.99891568e+01  6.00e-13 1.83e-12  5.39e-04     0s
  15   5.10468001e+01  4.26260698e+01  1.21e-12 1.34e-12  3.59e-04     0s
  16   4.92702511e+01  4.51967601e+01  6.25e-13 2.02e-12  1.74e-04     0s
  17   4.85144219e+01  4.67663409e+01  1.46e-12 2.63e-12  7.45e-05     0s
  18   4.80640434e+01  4.74884609e+01  3.73e-12 1.83e-12  2.45e-05     0s
  19   4.79309127e+01  4.76731275e+01  7.51e-12 2.24e-12  1.10e-05     0s
  20   4.78534015e+01  4.77282830e+01  2.51e-11 3.89e-12  5.33e-06     0s
  21   4.78377638e+01  4.77667821e+01  1.63e-11 7.48e-12  3.03e-06     0s
  22   4.78205612e+01  4.77993947e+01  5.94e-12 5.78e-12  9.02e-07     0s
  23   4.78138659e+01  4.78035559e+01  1.55e-11 7.01e-12  4.40e-07     0s
  24   4.78104165e+01  4.78087673e+01  5.33e-11 9.50e-12  7.03e-08     0s
  25   4.78095790e+01  4.78094022e+01  6.72e-11 3.41e-12  7.54e-09     0s
  26   4.78095164e+01  4.78095119e+01  1.36e-10 5.42e-12  1.92e-10     0s
  27   4.78095155e+01  4.78095154e+01  1.78e-08 1.43e-12  6.43e-12     0s

Barrier solved model in 27 iterations and 0.38 seconds (0.41 work units)
Optimal objective 4.78095155e+01


Root relaxation: objective 4.780952e+01, 1254 iterations, 0.21 seconds (0.19 work units)

    Nodes    |    Current Node    |     Objective Bounds      |     Work
 Expl Unexpl |  Obj  Depth IntInf | Incumbent    BestBd   Gap | It/Node Time

     0     0   47.80952    0   18   96.13253   47.80952  50.3%     -    0s
     0     0   48.77926    0   11   96.13253   48.77926  49.3%     -    1s
H    0     0                      92.4552319   48.77926  47.2%     -    1s
H    0     0                      85.8692497   48.77926  43.2%     -    1s
     0     0   48.77926    0   11   85.86925   48.77926  43.2%     -    1s
H    0     0                      82.0316686   49.01872  40.2%     -    1s
     0     0   49.01872    0   18   82.03167   49.01872  40.2%     -    1s
     0     0   49.05389    0   15   82.03167   49.05389  40.2%     -    1s
     0     0   49.05461    0   15   82.03167   49.05461  40.2%     -    1s
H    0     0                      79.1307164   49.15884  37.9%     -    1s
     0     0   49.15884    0   14   79.13072   49.15884  37.9%     -    1s
     0     0   49.22994    0   14   79.13072   49.22994  37.8%     -    2s
     0     0   49.23067    0   15   79.13072   49.23067  37.8%     -    2s
     0     0   49.23076    0   15   79.13072   49.23076  37.8%     -    2s
     0     0   49.23913    0   14   79.13072   49.23913  37.8%     -    2s
     0     0   49.24688    0   13   79.13072   49.24688  37.8%     -    2s
     0     0   49.24755    0   14   79.13072   49.24755  37.8%     -    2s
     0     0   49.24756    0   14   79.13072   49.24756  37.8%     -    2s
     0     0   49.24756    0   14   79.13072   49.24756  37.8%     -    2s
H    0     0                      66.1695268   49.24756  25.6%     -   17s
     0     2   49.24756    0   14   66.16953   49.24756  25.6%     -   17s
    72    69   56.08509    8   13   66.16953   50.74948  23.3%   521   20s
   279   129   57.35539    5    9   66.16953   54.14365  18.2%   432   25s
   593   166     cutoff   12        66.16953   57.34501  13.3%   411   30s
   897   231     cutoff   17        66.16953   58.84566  11.1%   373   35s
  1289   257     cutoff   14        66.16953   60.54611  8.50%   338   52s
  1385   277   64.97689    9    8   66.16953   60.90145  7.96%   330   60s
  2052   293     cutoff   10        66.16953   62.75467  5.16%   288   65s
  2392   248   64.92013   15    5   66.16953   63.29246  4.35%   272   84s
H 2500   248                      66.0712416   63.34801  4.12%   267   84s
  2574   157     cutoff   15        66.07124   63.56909  3.79%   263   96s

Cutting planes:
  Gomory: 1
  Implied bound: 101
  MIR: 381
  Relax-and-lift: 38

Explored 3195 nodes (749297 simplex iterations) in 98.10 seconds (149.99 work units)
Thread count was 9 (of 12 available processors)

Solution count 7: 66.0712 66.1695 79.1307 ... 96.1325

Optimal solution found (tolerance 1.00e-02)
Best objective 6.607124159132e+01, best bound 6.607124159132e+01, gap 0.0000%

Gurobi 10.0.0 (win64) logging started Thu Jun 13 21:56:30 2024

Set parameter LogFile to value "C:\Users\ealvarezq\Documents\GitHub\Comillas\Models\JointResearch\05. Models\06.Benchmarking\L.Cont_Investments_per_hour\RTS24_mod2_ByStages_nc70/openStarNet_RTS24_mod2_ByStages_nc70.log"
Set parameter Method to value 2
Set parameter MIPFocus to value 1
Set parameter Presolve to value 2
Set parameter RINS to value 100
Set parameter MIPGap to value 0.01
Set parameter Threads to value 9
Set parameter TimeLimit to value 259200
Set parameter IterationLimit to value 760000000
Gurobi Optimizer version 10.0.0 build v10.0.0rc2 (win64)

CPU model: Intel(R) Core(TM) i7-8700 CPU @ 3.20GHz, instruction set [SSE2|AVX|AVX2]
Thread count: 6 physical cores, 12 logical processors, using up to 9 threads

Optimize a model with 24853 rows, 16715 columns and 61684 nonzeros
Model fingerprint: 0x83dac2aa
Coefficient statistics:
  Matrix range     [1e-03, 2e+03]
  Objective range  [1e+00, 1e+00]
  Bounds range     [3e-05, 3e+00]
  RHS range        [3e-05, 2e+01]
Presolve removed 20933 rows and 9668 columns
Presolve time: 0.03s
Presolved: 3920 rows, 7180 columns, 17688 nonzeros

Ordering time: 0.00s

Barrier statistics:
 AA' NZ     : 1.028e+04
 Factor NZ  : 3.848e+04 (roughly 4 MB of memory)
 Factor Ops : 5.616e+05 (less than 1 second per iteration)
 Threads    : 1

                  Objective                Residual
Iter       Primal          Dual         Primal    Dual     Compl     Time
   0   2.52862274e+06 -1.18644961e+08  1.67e+01 4.67e+03  9.34e+04     0s
   1   1.63071845e+05 -6.72625309e+07  1.08e+00 4.37e-11  9.94e+03     0s
   2   5.67239506e+04 -1.91336731e+07  3.34e-01 7.28e-11  2.22e+03     0s
   3   2.14083295e+04 -4.17994975e+06  1.61e-02 4.21e-11  3.48e+02     0s
   4   1.63877106e+04 -2.88558213e+05  2.51e-04 2.18e-10  2.43e+01     0s
   5   7.70923793e+03 -9.49604340e+04  1.93e-06 5.82e-11  8.17e+00     0s
   6   3.12388206e+03 -2.57936221e+04  3.91e-08 2.91e-11  2.30e+00     0s
   7   8.59620651e+02 -4.14100128e+03  2.34e-10 8.60e-12  3.98e-01     0s
   8   2.36344876e+02 -1.36594585e+03  1.45e-12 1.64e-11  1.27e-01     0s
   9   1.69993361e+02 -3.62804484e+02  9.72e-13 8.98e-12  4.24e-02     0s
  10   1.23109346e+02 -1.26451496e+02  4.46e-13 5.84e-12  1.98e-02     0s
  11   9.86619988e+01 -1.10360831e+01  6.72e-13 2.23e-12  8.72e-03     0s
  12   8.30413320e+01  2.98052365e+01  2.38e-12 8.07e-12  4.23e-03     0s
  13   7.27689225e+01  5.60249203e+01  2.80e-12 4.29e-12  1.33e-03     0s
  14   6.74946041e+01  6.40337649e+01  1.06e-11 1.16e-11  2.75e-04     0s
  15   6.64371498e+01  6.57031015e+01  4.82e-11 3.86e-12  5.84e-05     0s
  16   6.61806259e+01  6.59463364e+01  4.12e-11 8.23e-12  1.86e-05     0s
  17   6.61066100e+01  6.60315834e+01  3.56e-11 8.37e-12  5.97e-06     0s
  18   6.60763907e+01  6.60694617e+01  4.91e-11 5.45e-12  5.51e-07     0s
  19   6.60714739e+01  6.60709492e+01  1.73e-10 6.40e-12  4.17e-08     0s
  20   6.60712429e+01  6.60712389e+01  1.12e-10 1.36e-11  3.21e-10     0s
  21   6.60712416e+01  6.60712416e+01  2.58e-11 6.26e-12  3.21e-13     0s
  22   6.60712416e+01  6.60712416e+01  1.18e-12 1.46e-11  3.21e-16     0s

Barrier solved model in 22 iterations and 0.09 seconds (0.09 work units)
Optimal objective 6.60712416e+01

Crossover log...

     774 DPushes remaining with DInf 0.0000000e+00                 0s
       0 DPushes remaining with DInf 0.0000000e+00                 0s

     246 PPushes remaining with PInf 0.0000000e+00                 0s
       0 PPushes remaining with PInf 0.0000000e+00                 0s

  Push phase complete: Pinf 0.0000000e+00, Dinf 4.7033038e-13      0s

Iteration    Objective       Primal Inf.    Dual Inf.      Time
     254    6.6071242e+01   0.000000e+00   0.000000e+00      0s

Use crossover to convert LP symmetric solution to basic solution...
Crossover log...

       0 DPushes remaining with DInf 0.0000000e+00                 0s

     130 PPushes remaining with PInf 0.0000000e+00                 0s
       0 PPushes remaining with PInf 0.0000000e+00                 0s

  Push phase complete: Pinf 0.0000000e+00, Dinf 4.8048748e-13      0s

Iteration    Objective       Primal Inf.    Dual Inf.      Time
     400    6.6071242e+01   0.000000e+00   0.000000e+00      0s

Solved in 400 iterations and 0.13 seconds (0.10 work units)
Optimal objective  6.607124159e+01
